2722
7646
6704
1299
9904
2157
2680
1262
2810
6532
6520
6828
8996
4178
6025
5143
2584
2266
8973
10087
8492
6647
3445
9037
8917
5646
6718
6534
8179
3025
9682
3943
5711
9773
9383
7022
1108
1978
9175
866
5970
724
6365
5086
3637
1336
1791
5821
1776
9824
